liczbaMiejsc = 48;
liczbaPracownikow = 24;
dMin = 2.5;
procentowaZajetoscMiejscWFirmie = 0.5;
macierzOdleglosci = [[0, 1.5, 3.0, 4.5, 6.0, 7.5, 9.0, 10.5, 12.0, 13.5, 15.0, 16.5, 2.0, 2.5, 3.6, 4.9, 6.3, 7.8, 9.2, 10.7, 12.2, 13.6, 15.1, 16.6, 5.0, 5.2, 5.8, 6.7, 7.8, 9.0, 10.3, 11.6, 13.0, 14.4, 15.8, 17.2, 7.0, 7.2, 7.6, 8.3, 9.2, 10.3, 11.4, 12.6, 13.9, 15.2, 16.6, 17.9], [0, 0, 1.5, 3.0, 4.5, 6.0, 7.5, 9.0, 10.5, 12.0, 13.5, 15.0, 2.5, 2.0, 2.5, 3.6, 4.9, 6.3, 7.8, 9.2, 10.7, 12.2, 13.6, 15.1, 5.2, 5.0, 5.2, 5.8, 6.7, 7.8, 9.0, 10.3, 11.6, 13.0, 14.4, 15.8, 7.2, 7.0, 7.2, 7.6, 8.3, 9.2, 10.3, 11.4, 12.6, 13.9, 15.2, 16.6], [0, 0, 0, 1.5, 3.0, 4.5, 6.0, 7.5, 9.0, 10.5, 12.0, 13.5, 3.6, 2.5, 2.0, 2.5, 3.6, 4.9, 6.3, 7.8, 9.2, 10.7, 12.2, 13.6, 5.8, 5.2, 5.0, 5.2, 5.8, 6.7, 7.8, 9.0, 10.3, 11.6, 13.0, 14.4, 7.6, 7.2, 7.0, 7.2, 7.6, 8.3, 9.2, 10.3, 11.4, 12.6, 13.9, 15.2], [0, 0, 0, 0, 1.5, 3.0, 4.5, 6.0, 7.5, 9.0, 10.5, 12.0, 4.9, 3.6, 2.5, 2.0, 2.5, 3.6, 4.9, 6.3, 7.8, 9.2, 10.7, 12.2, 6.7, 5.8, 5.2, 5.0, 5.2, 5.8, 6.7, 7.8, 9.0, 10.3, 11.6, 13.0, 8.3, 7.6, 7.2, 7.0, 7.2, 7.6, 8.3, 9.2, 10.3, 11.4, 12.6, 13.9], [0, 0, 0, 0, 0, 1.5, 3.0, 4.5, 6.0, 7.5, 9.0, 10.5, 6.3, 4.9, 3.6, 2.5, 2.0, 2.5, 3.6, 4.9, 6.3, 7.8, 9.2, 10.7, 7.8, 6.7, 5.8, 5.2, 5.0, 5.2, 5.8, 6.7, 7.8, 9.0, 10.3, 11.6, 9.2, 8.3, 7.6, 7.2, 7.0, 7.2, 7.6, 8.3, 9.2, 10.3, 11.4, 12.6], [0, 0, 0, 0, 0, 0, 1.5, 3.0, 4.5, 6.0, 7.5, 9.0, 7.8, 6.3, 4.9, 3.6, 2.5, 2.0, 2.5, 3.6, 4.9, 6.3, 7.8, 9.2, 9.0, 7.8, 6.7, 5.8, 5.2, 5.0, 5.2, 5.8, 6.7, 7.8, 9.0, 10.3, 10.3, 9.2, 8.3, 7.6, 7.2, 7.0, 7.2, 7.6, 8.3, 9.2, 10.3, 11.4], [0, 0, 0, 0, 0, 0, 0, 1.5, 3.0, 4.5, 6.0, 7.5, 9.2, 7.8, 6.3, 4.9, 3.6, 2.5, 2.0, 2.5, 3.6, 4.9, 6.3, 7.8, 10.3, 9.0, 7.8, 6.7, 5.8, 5.2, 5.0, 5.2, 5.8, 6.7, 7.8, 9.0, 11.4, 10.3, 9.2, 8.3, 7.6, 7.2, 7.0, 7.2, 7.6, 8.3, 9.2, 10.3], [0, 0, 0, 0, 0, 0, 0, 0, 1.5, 3.0, 4.5, 6.0, 10.7, 9.2, 7.8, 6.3, 4.9, 3.6, 2.5, 2.0, 2.5, 3.6, 4.9, 6.3, 11.6, 10.3, 9.0, 7.8, 6.7, 5.8, 5.2, 5.0, 5.2, 5.8, 6.7, 7.8, 12.6, 11.4, 10.3, 9.2, 8.3, 7.6, 7.2, 7.0, 7.2, 7.6, 8.3, 9.2], [0, 0, 0, 0, 0, 0, 0, 0, 0, 1.5, 3.0, 4.5, 12.2, 10.7, 9.2, 7.8, 6.3, 4.9, 3.6, 2.5, 2.0, 2.5, 3.6, 4.9, 13.0, 11.6, 10.3, 9.0, 7.8, 6.7, 5.8, 5.2, 5.0, 5.2, 5.8, 6.7, 13.9, 12.6, 11.4, 10.3, 9.2, 8.3, 7.6, 7.2, 7.0, 7.2, 7.6, 8.3], [0, 0, 0, 0, 0, 0, 0, 0, 0, 0, 1.5, 3.0, 13.6, 12.2, 10.7, 9.2, 7.8, 6.3, 4.9, 3.6, 2.5, 2.0, 2.5, 3.6, 14.4, 13.0, 11.6, 10.3, 9.0, 7.8, 6.7, 5.8, 5.2, 5.0, 5.2, 5.8, 15.2, 13.9, 12.6, 11.4, 10.3, 9.2, 8.3, 7.6, 7.2, 7.0, 7.2, 7.6], [0, 0, 0, 0, 0, 0, 0, 0, 0, 0, 0, 1.5, 15.1, 13.6, 12.2, 10.7, 9.2, 7.8, 6.3, 4.9, 3.6, 2.5, 2.0, 2.5, 15.8, 14.4, 13.0, 11.6, 10.3, 9.0, 7.8, 6.7, 5.8, 5.2, 5.0, 5.2, 16.6, 15.2, 13.9, 12.6, 11.4, 10.3, 9.2, 8.3, 7.6, 7.2, 7.0, 7.2], [0, 0, 0, 0, 0, 0, 0, 0, 0, 0, 0, 0, 16.6, 15.1, 13.6, 12.2, 10.7, 9.2, 7.8, 6.3, 4.9, 3.6, 2.5, 2.0, 17.2, 15.8, 14.4, 13.0, 11.6, 10.3, 9.0, 7.8, 6.7, 5.8, 5.2, 5.0, 17.9, 16.6, 15.2, 13.9, 12.6, 11.4, 10.3, 9.2, 8.3, 7.6, 7.2, 7.0], [0, 0, 0, 0, 0, 0, 0, 0, 0, 0, 0, 0, 0, 1.5, 3.0, 4.5, 6.0, 7.5, 9.0, 10.5, 12.0, 13.5, 15.0, 16.5, 3.0, 3.4, 4.2, 5.4, 6.7, 8.1, 9.5, 10.9, 12.4, 13.8, 15.3, 16.8, 5.0, 5.2, 5.8, 6.7, 7.8, 9.0, 10.3, 11.6, 13.0, 14.4, 15.8, 17.2], [0, 0, 0, 0, 0, 0, 0, 0, 0, 0, 0, 0, 0, 0, 1.5, 3.0, 4.5, 6.0, 7.5, 9.0, 10.5, 12.0, 13.5, 15.0, 3.4, 3.0, 3.4, 4.2, 5.4, 6.7, 8.1, 9.5, 10.9, 12.4, 13.8, 15.3, 5.2, 5.0, 5.2, 5.8, 6.7, 7.8, 9.0, 10.3, 11.6, 13.0, 14.4, 15.8], [0, 0, 0, 0, 0, 0, 0, 0, 0, 0, 0, 0, 0, 0, 0, 1.5, 3.0, 4.5, 6.0, 7.5, 9.0, 10.5, 12.0, 13.5, 4.2, 3.4, 3.0, 3.4, 4.2, 5.4, 6.7, 8.1, 9.5, 10.9, 12.4, 13.8, 5.8, 5.2, 5.0, 5.2, 5.8, 6.7, 7.8, 9.0, 10.3, 11.6, 13.0, 14.4], [0, 0, 0, 0, 0, 0, 0, 0, 0, 0, 0, 0, 0, 0, 0, 0, 1.5, 3.0, 4.5, 6.0, 7.5, 9.0, 10.5, 12.0, 5.4, 4.2, 3.4, 3.0, 3.4, 4.2, 5.4, 6.7, 8.1, 9.5, 10.9, 12.4, 6.7, 5.8, 5.2, 5.0, 5.2, 5.8, 6.7, 7.8, 9.0, 10.3, 11.6, 13.0], [0, 0, 0, 0, 0, 0, 0, 0, 0, 0, 0, 0, 0, 0, 0, 0, 0, 1.5, 3.0, 4.5, 6.0, 7.5, 9.0, 10.5, 6.7, 5.4, 4.2, 3.4, 3.0, 3.4, 4.2, 5.4, 6.7, 8.1, 9.5, 10.9, 7.8, 6.7, 5.8, 5.2, 5.0, 5.2, 5.8, 6.7, 7.8, 9.0, 10.3, 11.6], [0, 0, 0, 0, 0, 0, 0, 0, 0, 0, 0, 0, 0, 0, 0, 0, 0, 0, 1.5, 3.0, 4.5, 6.0, 7.5, 9.0, 8.1, 6.7, 5.4, 4.2, 3.4, 3.0, 3.4, 4.2, 5.4, 6.7, 8.1, 9.5, 9.0, 7.8, 6.7, 5.8, 5.2, 5.0, 5.2, 5.8, 6.7, 7.8, 9.0, 10.3], [0, 0, 0, 0, 0, 0, 0, 0, 0, 0, 0, 0, 0, 0, 0, 0, 0, 0, 0, 1.5, 3.0, 4.5, 6.0, 7.5, 9.5, 8.1, 6.7, 5.4, 4.2, 3.4, 3.0, 3.4, 4.2, 5.4, 6.7, 8.1, 10.3, 9.0, 7.8, 6.7, 5.8, 5.2, 5.0, 5.2, 5.8, 6.7, 7.8, 9.0], [0, 0, 0, 0, 0, 0, 0, 0, 0, 0, 0, 0, 0, 0, 0, 0, 0, 0, 0, 0, 1.5, 3.0, 4.5, 6.0, 10.9, 9.5, 8.1, 6.7, 5.4, 4.2, 3.4, 3.0, 3.4, 4.2, 5.4, 6.7, 11.6, 10.3, 9.0, 7.8, 6.7, 5.8, 5.2, 5.0, 5.2, 5.8, 6.7, 7.8], [0, 0, 0, 0, 0, 0, 0, 0, 0, 0, 0, 0, 0, 0, 0, 0, 0, 0, 0, 0, 0, 1.5, 3.0, 4.5, 12.4, 10.9, 9.5, 8.1, 6.7, 5.4, 4.2, 3.4, 3.0, 3.4, 4.2, 5.4, 13.0, 11.6, 10.3, 9.0, 7.8, 6.7, 5.8, 5.2, 5.0, 5.2, 5.8, 6.7], [0, 0, 0, 0, 0, 0, 0, 0, 0, 0, 0, 0, 0, 0, 0, 0, 0, 0, 0, 0, 0, 0, 1.5, 3.0, 13.8, 12.4, 10.9, 9.5, 8.1, 6.7, 5.4, 4.2, 3.4, 3.0, 3.4, 4.2, 14.4, 13.0, 11.6, 10.3, 9.0, 7.8, 6.7, 5.8, 5.2, 5.0, 5.2, 5.8], [0, 0, 0, 0, 0, 0, 0, 0, 0, 0, 0, 0, 0, 0, 0, 0, 0, 0, 0, 0, 0, 0, 0, 1.5, 15.3, 13.8, 12.4, 10.9, 9.5, 8.1, 6.7, 5.4, 4.2, 3.4, 3.0, 3.4, 15.8, 14.4, 13.0, 11.6, 10.3, 9.0, 7.8, 6.7, 5.8, 5.2, 5.0, 5.2], [0, 0, 0, 0, 0, 0, 0, 0, 0, 0, 0, 0, 0, 0, 0, 0, 0, 0, 0, 0, 0, 0, 0, 0, 16.8, 15.3, 13.8, 12.4, 10.9, 9.5, 8.1, 6.7, 5.4, 4.2, 3.4, 3.0, 17.2, 15.8, 14.4, 13.0, 11.6, 10.3, 9.0, 7.8, 6.7, 5.8, 5.2, 5.0], [0, 0, 0, 0, 0, 0, 0, 0, 0, 0, 0, 0, 0, 0, 0, 0, 0, 0, 0, 0, 0, 0, 0, 0, 0, 1.5, 3.0, 4.5, 6.0, 7.5, 9.0, 10.5, 12.0, 13.5, 15.0, 16.5, 2.0, 2.5, 3.6, 4.9, 6.3, 7.8, 9.2, 10.7, 12.2, 13.6, 15.1, 16.6], [0, 0, 0, 0, 0, 0, 0, 0, 0, 0, 0, 0, 0, 0, 0, 0, 0, 0, 0, 0, 0, 0, 0, 0, 0, 0, 1.5, 3.0, 4.5, 6.0, 7.5, 9.0, 10.5, 12.0, 13.5, 15.0, 2.5, 2.0, 2.5, 3.6, 4.9, 6.3, 7.8, 9.2, 10.7, 12.2, 13.6, 15.1], [0, 0, 0, 0, 0, 0, 0, 0, 0, 0, 0, 0, 0, 0, 0, 0, 0, 0, 0, 0, 0, 0, 0, 0, 0, 0, 0, 1.5, 3.0, 4.5, 6.0, 7.5, 9.0, 10.5, 12.0, 13.5, 3.6, 2.5, 2.0, 2.5, 3.6, 4.9, 6.3, 7.8, 9.2, 10.7, 12.2, 13.6], [0, 0, 0, 0, 0, 0, 0, 0, 0, 0, 0, 0, 0, 0, 0, 0, 0, 0, 0, 0, 0, 0, 0, 0, 0, 0, 0, 0, 1.5, 3.0, 4.5, 6.0, 7.5, 9.0, 10.5, 12.0, 4.9, 3.6, 2.5, 2.0, 2.5, 3.6, 4.9, 6.3, 7.8, 9.2, 10.7, 12.2], [0, 0, 0, 0, 0, 0, 0, 0, 0, 0, 0, 0, 0, 0, 0, 0, 0, 0, 0, 0, 0, 0, 0, 0, 0, 0, 0, 0, 0, 1.5, 3.0, 4.5, 6.0, 7.5, 9.0, 10.5, 6.3, 4.9, 3.6, 2.5, 2.0, 2.5, 3.6, 4.9, 6.3, 7.8, 9.2, 10.7], [0, 0, 0, 0, 0, 0, 0, 0, 0, 0, 0, 0, 0, 0, 0, 0, 0, 0, 0, 0, 0, 0, 0, 0, 0, 0, 0, 0, 0, 0, 1.5, 3.0, 4.5, 6.0, 7.5, 9.0, 7.8, 6.3, 4.9, 3.6, 2.5, 2.0, 2.5, 3.6, 4.9, 6.3, 7.8, 9.2], [0, 0, 0, 0, 0, 0, 0, 0, 0, 0, 0, 0, 0, 0, 0, 0, 0, 0, 0, 0, 0, 0, 0, 0, 0, 0, 0, 0, 0, 0, 0, 1.5, 3.0, 4.5, 6.0, 7.5, 9.2, 7.8, 6.3, 4.9, 3.6, 2.5, 2.0, 2.5, 3.6, 4.9, 6.3, 7.8], [0, 0, 0, 0, 0, 0, 0, 0, 0, 0, 0, 0, 0, 0, 0, 0, 0, 0, 0, 0, 0, 0, 0, 0, 0, 0, 0, 0, 0, 0, 0, 0, 1.5, 3.0, 4.5, 6.0, 10.7, 9.2, 7.8, 6.3, 4.9, 3.6, 2.5, 2.0, 2.5, 3.6, 4.9, 6.3], [0, 0, 0, 0, 0, 0, 0, 0, 0, 0, 0, 0, 0, 0, 0, 0, 0, 0, 0, 0, 0, 0, 0, 0, 0, 0, 0, 0, 0, 0, 0, 0, 0, 1.5, 3.0, 4.5, 12.2, 10.7, 9.2, 7.8, 6.3, 4.9, 3.6, 2.5, 2.0, 2.5, 3.6, 4.9], [0, 0, 0, 0, 0, 0, 0, 0, 0, 0, 0, 0, 0, 0, 0, 0, 0, 0, 0, 0, 0, 0, 0, 0, 0, 0, 0, 0, 0, 0, 0, 0, 0, 0, 1.5, 3.0, 13.6, 12.2, 10.7, 9.2, 7.8, 6.3, 4.9, 3.6, 2.5, 2.0, 2.5, 3.6], [0, 0, 0, 0, 0, 0, 0, 0, 0, 0, 0, 0, 0, 0, 0, 0, 0, 0, 0, 0, 0, 0, 0, 0, 0, 0, 0, 0, 0, 0, 0, 0, 0, 0, 0, 1.5, 15.1, 13.6, 12.2, 10.7, 9.2, 7.8, 6.3, 4.9, 3.6, 2.5, 2.0, 2.5], [0, 0, 0, 0, 0, 0, 0, 0, 0, 0, 0, 0, 0, 0, 0, 0, 0, 0, 0, 0, 0, 0, 0, 0, 0, 0, 0, 0, 0, 0, 0, 0, 0, 0, 0, 0, 16.6, 15.1, 13.6, 12.2, 10.7, 9.2, 7.8, 6.3, 4.9, 3.6, 2.5, 2.0], [0, 0, 0, 0, 0, 0, 0, 0, 0, 0, 0, 0, 0, 0, 0, 0, 0, 0, 0, 0, 0, 0, 0, 0, 0, 0, 0, 0, 0, 0, 0, 0, 0, 0, 0, 0, 0, 1.5, 3.0, 4.5, 6.0, 7.5, 9.0, 10.5, 12.0, 13.5, 15.0, 16.5], [0, 0, 0, 0, 0, 0, 0, 0, 0, 0, 0, 0, 0, 0, 0, 0, 0, 0, 0, 0, 0, 0, 0, 0, 0, 0, 0, 0, 0, 0, 0, 0, 0, 0, 0, 0, 0, 0, 1.5, 3.0, 4.5, 6.0, 7.5, 9.0, 10.5, 12.0, 13.5, 15.0], [0, 0, 0, 0, 0, 0, 0, 0, 0, 0, 0, 0, 0, 0, 0, 0, 0, 0, 0, 0, 0, 0, 0, 0, 0, 0, 0, 0, 0, 0, 0, 0, 0, 0, 0, 0, 0, 0, 0, 1.5, 3.0, 4.5, 6.0, 7.5, 9.0, 10.5, 12.0, 13.5], [0, 0, 0, 0, 0, 0, 0, 0, 0, 0, 0, 0, 0, 0, 0, 0, 0, 0, 0, 0, 0, 0, 0, 0, 0, 0, 0, 0, 0, 0, 0, 0, 0, 0, 0, 0, 0, 0, 0, 0, 1.5, 3.0, 4.5, 6.0, 7.5, 9.0, 10.5, 12.0], [0, 0, 0, 0, 0, 0, 0, 0, 0, 0, 0, 0, 0, 0, 0, 0, 0, 0, 0, 0, 0, 0, 0, 0, 0, 0, 0, 0, 0, 0, 0, 0, 0, 0, 0, 0, 0, 0, 0, 0, 0, 1.5, 3.0, 4.5, 6.0, 7.5, 9.0, 10.5], [0, 0, 0, 0, 0, 0, 0, 0, 0, 0, 0, 0, 0, 0, 0, 0, 0, 0, 0, 0, 0, 0, 0, 0, 0, 0, 0, 0, 0, 0, 0, 0, 0, 0, 0, 0, 0, 0, 0, 0, 0, 0, 1.5, 3.0, 4.5, 6.0, 7.5, 9.0], [0, 0, 0, 0, 0, 0, 0, 0, 0, 0, 0, 0, 0, 0, 0, 0, 0, 0, 0, 0, 0, 0, 0, 0, 0, 0, 0, 0, 0, 0, 0, 0, 0, 0, 0, 0, 0, 0, 0, 0, 0, 0, 0, 1.5, 3.0, 4.5, 6.0, 7.5], [0, 0, 0, 0, 0, 0, 0, 0, 0, 0, 0, 0, 0, 0, 0, 0, 0, 0, 0, 0, 0, 0, 0, 0, 0, 0, 0, 0, 0, 0, 0, 0, 0, 0, 0, 0, 0, 0, 0, 0, 0, 0, 0, 0, 1.5, 3.0, 4.5, 6.0], [0, 0, 0, 0, 0, 0, 0, 0, 0, 0, 0, 0, 0, 0, 0, 0, 0, 0, 0, 0, 0, 0, 0, 0, 0, 0, 0, 0, 0, 0, 0, 0, 0, 0, 0, 0, 0, 0, 0, 0, 0, 0, 0, 0, 0, 1.5, 3.0, 4.5], [0, 0, 0, 0, 0, 0, 0, 0, 0, 0, 0, 0, 0, 0, 0, 0, 0, 0, 0, 0, 0, 0, 0, 0, 0, 0, 0, 0, 0, 0, 0, 0, 0, 0, 0, 0, 0, 0, 0, 0, 0, 0, 0, 0, 0, 0, 1.5, 3.0], [0, 0, 0, 0, 0, 0, 0, 0, 0, 0, 0, 0, 0, 0, 0, 0, 0, 0, 0, 0, 0, 0, 0, 0, 0, 0, 0, 0, 0, 0, 0, 0, 0, 0, 0, 0, 0, 0, 0, 0, 0, 0, 0, 0, 0, 0, 0, 1.5], [0, 0, 0, 0, 0, 0, 0, 0, 0, 0, 0, 0, 0, 0, 0, 0, 0, 0, 0, 0, 0, 0, 0, 0, 0, 0, 0, 0, 0, 0, 0, 0, 0, 0, 0, 0, 0, 0, 0, 0, 0, 0, 0, 0, 0, 0, 0, 0]];